Minimize
b_2 + b_7 + b_16 + b_29 + b_1 + b_6 + b_43 + b_28
Subject To
b_31 + b_32 + b_35 - 2 d_0 >= 0
d_0 - b_31 >= 0
d_0 - b_32 >= 0
d_0 - b_35 >= 0
b_32 + b_2 + b_36 - 2 d_1 >= 0
d_1 - b_32 >= 0
d_1 - b_2 >= 0
d_1 - b_36 >= 0
b_33 + b_7 + b_37 - 2 d_2 >= 0
d_2 - b_33 >= 0
d_2 - b_7 >= 0
d_2 - b_37 >= 0
b_36 + b_37 + b_38 + b_39 - 3 d_3 >= 0
d_3 - b_36 >= 0
d_3 - b_37 >= 0
d_3 - b_38 >= 0
d_3 - b_39 >= 0
b_38 + b_16 + b_40 - 2 d_4 >= 0
d_4 - b_38 >= 0
d_4 - b_16 >= 0
d_4 - b_40 >= 0
b_39 + b_29 + b_41 - 2 d_5 >= 0
d_5 - b_39 >= 0
d_5 - b_29 >= 0
d_5 - b_41 >= 0
b_2 + b_6 + b_42 - 2 d_6 >= 0
d_6 - b_2 >= 0
d_6 - b_6 >= 0
d_6 - b_42 >= 0
b_7 + b_15 + b_43 - 2 d_7 >= 0
d_7 - b_7 >= 0
d_7 - b_15 >= 0
d_7 - b_43 >= 0
b_16 + b_28 + b_44 - 2 d_8 >= 0
d_8 - b_16 >= 0
d_8 - b_28 >= 0
d_8 - b_44 >= 0
Binary
b_0
b_1
b_2
b_3
b_4
b_5
b_6
b_7
b_8
b_9
b_10
b_11
b_12
b_13
b_14
b_15
b_16
b_17
b_18
b_19
b_20
b_21
b_22
b_23
b_24
b_25
b_26
b_27
b_28
b_29
b_30
b_31
b_32
b_33
b_34
b_35
b_36
b_37
b_38
b_39
b_40
b_41
b_42
b_43
b_44
d_0
d_1
d_2
d_3
d_4
d_5
d_6
d_7
d_8
END